(set-info :smt-lib-version 2.6)
(set-logic UF)
(set-info :source |Benchmarks from the paper: "Extending Sledgehammer with SMT Solvers" by Jasmin Blanchette, Sascha Bohme, and Lawrence C. Paulson, CADE 2011.  Translated to SMT2 by Andrew Reynolds and Morgan Deters.|)
(set-info :category "industrial")
(set-info :status sat)
(declare-sort S1 0)
(declare-sort S2 0)
(declare-sort S3 0)
(declare-sort S4 0)
(declare-sort S5 0)
(declare-sort S6 0)
(declare-sort S7 0)
(declare-sort S8 0)
(declare-sort S9 0)
(declare-sort S10 0)
(declare-sort S11 0)
(declare-sort S12 0)
(declare-fun f1 () S1)
(declare-fun f2 () S1)
(declare-fun f3 (S3 S4) S1)
(declare-fun f4 (S5 S6) S3)
(declare-fun f5 (S7 S6) S5)
(declare-fun f6 () S7)
(declare-fun f7 () S6)
(declare-fun f8 () S6)
(declare-fun f9 (S8 S2) S4)
(declare-fun f10 () S8)
(declare-fun f11 () S8)
(declare-fun f12 () S6)
(declare-fun f13 () S6)
(declare-fun f14 (S8 S9) S1)
(declare-fun f15 () S8)
(declare-fun f16 () S9)
(declare-fun f17 (S10) S1)
(declare-fun f18 () S10)
(declare-fun f19 (S10) S1)
(declare-fun f20 (S10 S8) S4)
(declare-fun f21 (S11 S6) S4)
(declare-fun f22 (S4) S11)
(declare-fun f23 (S4) S11)
(declare-fun f24 (S4 S3) S1)
(declare-fun f25 (S4 S12) S1)
(declare-fun f26 () S12)
(declare-fun f27 (S4 S6 S6) S1)
(assert (not (= f1 f2)))
(assert (not (forall ((?v0 S2)) (let ((?v_0 (f4 (f5 f6 f7) f8))) (= (= (f3 ?v_0 (f9 f10 ?v0)) f1) (= (f3 ?v_0 (f9 f11 ?v0)) f1))))))
(assert (not (= f12 f13)))
(assert (not (= f7 f8)))
(assert (not (= f12 f8)))
(assert (not (= f13 f7)))
(assert (= (f14 f15 f16) f1))
(assert (forall ((?v0 S2)) (= (= (f3 (f4 (f5 f6 f12) f13) (f9 f15 ?v0)) f1) (= (f3 (f4 (f5 f6 f7) f8) (f9 f11 ?v0)) f1))))
(assert (not (= f12 f8)))
(assert (not (= f13 f7)))
(assert (not (= f7 f8)))
(assert (= (f14 f11 f16) f1))
(assert (= (f14 f10 f16) f1))
(assert (forall ((?v0 S2)) (= (= (f3 (f4 (f5 f6 f12) f13) (f9 f15 ?v0)) f1) (= (f3 (f4 (f5 f6 f7) f8) (f9 f11 ?v0)) f1))))
(assert (= (f17 f18) f1))
(assert (= (f19 f18) f1))
(assert (forall ((?v0 S2)) (let ((?v_0 (f4 (f5 f6 f12) f13))) (= (= (f3 ?v_0 (f9 f15 ?v0)) f1) (= (f3 ?v_0 (f9 f10 ?v0)) f1)))))
(assert (= (f3 (f4 (f5 f6 f7) f8) (f20 f18 f10)) f1))
(assert (=> (not (= f12 f7)) (= (f3 (f4 (f5 f6 f7) f12) (f20 f18 f10)) f1)))
(assert (=> (not (= f13 f8)) (= (f3 (f4 (f5 f6 f13) f8) (f20 f18 f10)) f1)))
(assert (= (f3 (f4 (f5 f6 f12) f13) (f20 f18 f10)) f1))
(assert (= (f3 (f4 (f5 f6 f12) f13) (f20 f18 f15)) f1))
(assert (forall ((?v0 S6) (?v1 S6) (?v2 S4) (?v3 S6)) (let ((?v_0 (f4 (f5 f6 ?v0) ?v1))) (= (= (f3 ?v_0 (f21 (f22 ?v2) ?v3)) f1) (and (not (= ?v1 ?v3)) (ite (= ?v0 ?v3) (not (= ?v0 ?v1)) (= (f3 ?v_0 ?v2) f1)))))))
(assert (forall ((?v0 S6) (?v1 S6) (?v2 S4) (?v3 S6)) (let ((?v_0 (f4 (f5 f6 ?v0) ?v1))) (= (= (f3 ?v_0 (f21 (f23 ?v2) ?v3)) f1) (and (not (= ?v0 ?v3)) (ite (= ?v1 ?v3) (not (= ?v0 ?v1)) (= (f3 ?v_0 ?v2) f1)))))))
(assert (forall ((?v0 S4)) (= (forall ((?v1 S3)) (= (f24 ?v0 ?v1) f1)) (forall ((?v1 S6) (?v2 S6)) (= (f24 ?v0 (f4 (f5 f6 ?v1) ?v2)) f1)))))
(assert (forall ((?v0 S6) (?v1 S6) (?v2 S6) (?v3 S6)) (= (= (f4 (f5 f6 ?v0) ?v1) (f4 (f5 f6 ?v2) ?v3)) (and (= ?v0 ?v2) (= ?v1 ?v3)))))
(assert (forall ((?v0 S6) (?v1 S6) (?v2 S6) (?v3 S6)) (=> (= (f4 (f5 f6 ?v0) ?v1) (f4 (f5 f6 ?v2) ?v3)) (=> (=> (= ?v0 ?v2) (=> (= ?v1 ?v3) false)) false))))
(assert (= (f25 (f20 f18 f10) f26) f1))
(assert (forall ((?v0 S4) (?v1 S6) (?v2 S6)) (= (= (f27 ?v0 ?v1 ?v2) f1) (= (f3 (f4 (f5 f6 ?v1) ?v2) ?v0) f1))))
(assert (= (f14 f15 f16) f1))
(assert (not (= f12 f13)))
(assert (forall ((?v0 S4) (?v1 S6)) (=> (= (f25 ?v0 f26) f1) (= (f25 (f21 (f22 ?v0) ?v1) f26) f1))))
(assert (forall ((?v0 S4) (?v1 S6)) (=> (= (f25 ?v0 f26) f1) (= (f25 (f21 (f23 ?v0) ?v1) f26) f1))))
(assert (forall ((?v0 S4) (?v1 S6) (?v2 S6)) (=> (= (f25 ?v0 f26) f1) (=> (= (f3 (f4 (f5 f6 ?v1) ?v2) ?v0) f1) (=> (= (f3 (f4 (f5 f6 ?v2) ?v1) ?v0) f1) false)))))
(assert (forall ((?v0 S4) (?v1 S6) (?v2 S6)) (=> (= (f25 ?v0 f26) f1) (=> (not (= ?v1 ?v2)) (= (not (= (f3 (f4 (f5 f6 ?v1) ?v2) ?v0) f1)) (= (f3 (f4 (f5 f6 ?v2) ?v1) ?v0) f1))))))
(assert (forall ((?v0 S10)) (= (= (f17 ?v0) f1) (forall ((?v1 S8)) (=> (= (f14 ?v1 f16) f1) (forall ((?v2 S8)) (=> (= (f14 ?v2 f16) f1) (forall ((?v3 S6) (?v4 S6)) (let ((?v_0 (f4 (f5 f6 ?v3) ?v4))) (=> (forall ((?v5 S2)) (= (= (f3 ?v_0 (f9 ?v1 ?v5)) f1) (= (f3 ?v_0 (f9 ?v2 ?v5)) f1))) (= (= (f3 ?v_0 (f20 ?v0 ?v1)) f1) (= (f3 ?v_0 (f20 ?v0 ?v2)) f1))))))))))))
(assert (forall ((?v0 S10)) (= (= (f19 ?v0) f1) (forall ((?v1 S8)) (=> (= (f14 ?v1 f16) f1) (forall ((?v2 S6) (?v3 S6)) (=> (forall ((?v4 S2)) (= (f3 (f4 (f5 f6 ?v2) ?v3) (f9 ?v1 ?v4)) f1)) (= (f3 (f4 (f5 f6 ?v2) ?v3) (f20 ?v0 ?v1)) f1))))))))
(assert (forall ((?v0 S6) (?v1 S6)) (=> (not (= ?v0 ?v1)) (exists ((?v2 S4)) (and (= (f25 ?v2 f26) f1) (= (f3 (f4 (f5 f6 ?v0) ?v1) ?v2) f1))))))
(check-sat)
(exit)
